benchmarks/bfuzz0/9014240052775512163831013894035545.smt2
(set-logic QF_FP)
(declare-const x0 (_ FloatingPoint 11 53))
(declare-const x1 (_ FloatingPoint 11 53))
(declare-const x2 (_ FloatingPoint 11 53))
(declare-const x3 (_ FloatingPoint 11 53))
(declare-const x4 (_ FloatingPoint 11 53))
(declare-const x5 (_ FloatingPoint 11 53))
(declare-const x6 (_ FloatingPoint 11 53))
(declare-const x7 (_ FloatingPoint 11 53))
(assert (fp.leq (fp.mul RNE x4 x6) (fp.neg x6)))
(assert (fp.lt (fp.neg x6) (fp.add RNE x0 x7)))
(assert (fp.leq (fp.sub RNE x1 x4) (fp.add RNE x5 x2)))
(assert (fp.eq (fp.mul RNE x2 x0) (fp.neg x4)))
(assert (fp.eq (fp.sub RNE x5 x6) (fp.div RNE x5 x1)))
(assert (fp.geq (fp.add RNE x7 x6) (fp.neg x2)))
(check-sat)
