db/data/9014240052775512163831013894035545.z3.out
sat
-------------------
49.328334028
